
<<< setup

Version identifier: 22.1.1.0 | 2022-11-27 | 9160aff4d
Tried aggregator 1 time.
LP Presolve eliminated 1069 rows and 1031 columns.
Reduced LP has 20 rows, 34 columns, and 57 nonzeros.
Presolve time = 0.02 sec. (1.60 ticks)

Iteration log . . .
Iteration:     1   Dual infeasibility =           138.421254
Iteration:    27   Dual objective     =           257.917588
main returns 0

<<< main


<<< done

